peakDumbCharging = 29600; 
Machine = anon_enum(16); 
machineSpeed = [3700,3700,3700,3700,3700,3700,3700,3700,3700,3700,3700,3700,3700,3700,3700,3700]; 
machineLoad = [3700,3700,3700,3700,3700,3700,3700,3700,3700,3700,3700,3700,3700,3700,3700,3700]; 
Car = anon_enum(25); 
demandCar = [1120,5440,19480,6600,5720,6800,6680,3760,5880,9000,5960,4040,6600,4920,6120,11320,18080,3400,11000,9480,29120,14200,27360,33440,15760]; 
arrivalCar = [74,74,74,73,70,67,64,63,62,62,62,62,61,60,59,59,59,51,50,49,49,42,37,30,18]; 
departureCar = [75,76,80,77,73,70,68,65,67,68,65,64,66,62,62,67,70,55,54,53,58,50,46,48,23]; 
